c numero: 49
c nombre: n-45-d-0.3
c densidad: 0.3
p edges 45 319
e 1 3
e 1 4
e 1 10
e 1 17
e 1 24
e 1 29
e 1 31
e 1 32
e 1 34
e 1 35
e 1 36
e 1 40
e 1 41
e 2 3
e 2 5
e 2 7
e 2 9
e 2 11
e 2 14
e 2 15
e 2 17
e 2 21
e 2 27
e 2 31
e 2 34
e 2 35
e 2 37
e 2 39
e 2 40
e 2 42
e 2 45
e 3 7
e 3 16
e 3 21
e 3 22
e 3 24
e 3 26
e 3 29
e 3 31
e 3 34
e 3 36
e 3 39
e 3 44
e 4 7
e 4 9
e 4 15
e 4 19
e 4 22
e 4 23
e 4 24
e 4 31
e 4 32
e 4 38
e 4 43
e 4 45
e 5 6
e 5 9
e 5 14
e 5 15
e 5 18
e 5 20
e 5 27
e 5 30
e 5 38
e 5 39
e 5 42
e 6 9
e 6 11
e 6 12
e 6 16
e 6 18
e 6 26
e 6 30
e 6 32
e 6 34
e 6 41
e 7 10
e 7 12
e 7 17
e 7 20
e 7 21
e 7 22
e 7 24
e 7 27
e 7 29
e 7 31
e 7 33
e 7 35
e 7 36
e 8 12
e 8 17
e 8 19
e 8 25
e 8 34
e 8 36
e 8 38
e 8 40
e 8 41
e 8 42
e 8 45
e 9 11
e 9 14
e 9 16
e 9 17
e 9 21
e 9 23
e 9 31
e 9 38
e 9 40
e 9 41
e 10 14
e 10 21
e 10 22
e 10 24
e 10 29
e 10 30
e 10 31
e 10 33
e 10 36
e 10 40
e 10 45
e 11 12
e 11 15
e 11 16
e 11 22
e 11 26
e 11 27
e 11 29
e 11 30
e 11 34
e 11 35
e 11 37
e 11 40
e 11 41
e 11 43
e 12 13
e 12 14
e 12 15
e 12 19
e 12 22
e 12 25
e 12 29
e 12 32
e 12 45
e 13 22
e 13 24
e 13 31
e 13 33
e 13 37
e 13 38
e 13 39
e 13 41
e 13 44
e 14 18
e 14 24
e 14 30
e 14 32
e 14 33
e 14 43
e 15 20
e 15 24
e 15 28
e 15 30
e 15 31
e 15 33
e 15 34
e 16 17
e 16 19
e 16 20
e 16 29
e 16 32
e 16 35
e 16 40
e 16 44
e 16 45
e 17 21
e 17 22
e 17 24
e 17 28
e 17 30
e 17 31
e 17 32
e 17 34
e 17 40
e 17 44
e 17 45
e 18 19
e 18 20
e 18 22
e 18 23
e 18 26
e 18 34
e 18 42
e 18 43
e 19 21
e 19 31
e 19 32
e 19 35
e 19 36
e 19 39
e 19 42
e 19 44
e 20 21
e 20 25
e 20 26
e 20 27
e 20 33
e 20 36
e 20 38
e 20 41
e 20 43
e 20 44
e 20 45
e 21 25
e 21 26
e 21 27
e 21 31
e 21 33
e 21 37
e 21 39
e 21 42
e 21 44
e 21 45
e 22 23
e 22 26
e 22 27
e 22 29
e 22 33
e 22 40
e 22 42
e 22 45
e 23 29
e 23 31
e 23 32
e 23 37
e 23 41
e 23 45
e 24 30
e 24 31
e 24 33
e 24 42
e 24 43
e 24 44
e 25 27
e 25 31
e 25 32
e 25 33
e 25 34
e 25 35
e 25 38
e 25 40
e 25 41
e 25 43
e 25 45
e 26 28
e 26 30
e 26 37
e 26 40
e 26 41
e 26 44
e 27 33
e 27 40
e 27 43
e 27 45
e 28 31
e 28 35
e 28 36
e 28 40
e 28 44
e 28 45
e 29 31
e 29 34
e 29 35
e 29 38
e 29 42
e 29 44
e 30 41
e 30 45
e 31 35
e 31 37
e 31 42
e 31 44
e 32 33
e 32 35
e 32 37
e 32 41
e 32 45
e 33 35
e 33 37
e 33 39
e 33 40
e 33 43
e 33 44
e 34 36
e 34 39
e 34 40
e 34 42
e 34 45
e 35 36
e 35 38
e 35 39
e 36 37
e 36 39
e 36 43
e 36 45
e 37 42
e 38 40
e 38 41
e 38 43
e 38 45
e 39 42
e 39 43
e 40 44
e 41 42
e 41 44
e 41 45
e 42 43
e 43 45
e 44 45
